Geometry = GenFormat {
3 S
  O H

  1 1  0.00000000000E+00 -0.10000000000E+01  0.00000000000E+00
  2 2  0.00000000000E+00  0.00000000000E+00  0.78306400000E+00
  3 2  0.00000000000E+00  0.00000000000E+00 -0.78306400000E+00
  0.000000 0.000000 0.000000
  2.713546 2.713546 0.
  0. 2.713546 2.713546
  2.713546 0. 2.713546
}

Driver = ConjugateGradient {
  MovedAtoms = 1:-1
  MaxForceComponent = 1E-4
  MaxSteps = 100
  OutputPrefix = "geom.out"
}

Hamiltonian = DFTB {
  Scc = Yes
  SlaterKosterFiles {
    O-O = "../slakos/mio-1-1/O-O.skf"
    O-H = "../slakos/mio-1-1/O-H.skf"
    H-O = "../slakos/mio-1-1/H-O.skf"
    H-H = "../slakos/mio-1-1/H-H.skf"
  }
  MaxAngularMomentum {
    O = "p"
    H = "s"
  }
    KPointsAndWeights = SupercellFolding {
    4 0 0
    0 4 0
    0 0 4
    0.5 0.5 0.5
  }
}

Options {}

Analysis {
  CalculateForces = Yes
}

ParserOptions {
  ParserVersion = 7
}
